experiment/data/hgs-res/Vrp-Set-X-n167/Vrp-Set-X-n167-hgs/0.hgs1.vrp
NAME : 0
COMMENT : CVRP Instance
TYPE : CVRP
DIMENSION : 167
EDGE_WEIGHT_TYPE : EUC_2D
CAPACITY : 133
NODE_COORD_SECTION
1	0.0	0.0
2	832.0	885.0
3	777.0	632.0
4	406.0	257.0
5	620.0	467.0
6	58.0	70.0
7	116.0	423.0
8	104.0	445.0
9	714.0	722.0
10	188.0	503.0
11	856.0	594.0
12	932.0	448.0
13	749.0	982.0
14	818.0	889.0
15	377.0	493.0
16	337.0	419.0
17	772.0	605.0
18	373.0	448.0
19	519.0	112.0
20	849.0	274.0
21	533.0	839.0
22	610.0	417.0
23	69.0	583.0
24	573.0	195.0
25	988.0	324.0
26	110.0	550.0
27	271.0	676.0
28	694.0	130.0
29	791.0	590.0
30	785.0	614.0
31	321.0	305.0
32	974.0	292.0
33	804.0	556.0
34	372.0	893.0
35	867.0	23.0
36	252.0	660.0
37	588.0	34.0
38	939.0	685.0
39	511.0	524.0
40	948.0	479.0
41	912.0	227.0
42	380.0	807.0
43	309.0	141.0
44	558.0	759.0
45	241.0	225.0
46	920.0	87.0
47	269.0	351.0
48	156.0	776.0
49	251.0	512.0
50	608.0	874.0
51	853.0	269.0
52	897.0	572.0
53	316.0	461.0
54	825.0	529.0
55	474.0	152.0
56	510.0	453.0
57	15.0	838.0
58	778.0	928.0
59	1.0	896.0
60	804.0	492.0
61	630.0	294.0
62	2.0	966.0
63	254.0	539.0
64	167.0	28.0
65	646.0	879.0
66	863.0	49.0
67	508.0	759.0
68	64.0	165.0
69	249.0	525.0
70	49.0	605.0
71	990.0	375.0
72	539.0	272.0
73	833.0	561.0
74	84.0	571.0
75	378.0	847.0
76	713.0	485.0
77	489.0	204.0
78	815.0	905.0
79	307.0	774.0
80	286.0	204.0
81	517.0	61.0
82	918.0	74.0
83	864.0	397.0
84	35.0	597.0
85	918.0	632.0
86	395.0	570.0
87	87.0	97.0
88	318.0	94.0
89	893.0	805.0
90	82.0	392.0
91	471.0	899.0
92	567.0	895.0
93	349.0	360.0
94	138.0	560.0
95	459.0	962.0
96	795.0	461.0
97	398.0	467.0
98	553.0	606.0
99	952.0	89.0
100	92.0	22.0
101	853.0	188.0
102	643.0	80.0
103	801.0	227.0
104	127.0	74.0
105	727.0	975.0
106	552.0	48.0
107	311.0	959.0
108	647.0	876.0
109	742.0	168.0
110	755.0	589.0
111	741.0	8.0
112	975.0	954.0
113	820.0	502.0
114	552.0	300.0
115	802.0	744.0
116	515.0	599.0
117	585.0	600.0
118	573.0	793.0
119	159.0	669.0
120	248.0	369.0
121	868.0	476.0
122	275.0	194.0
123	930.0	933.0
124	233.0	587.0
125	198.0	35.0
126	444.0	648.0
127	184.0	822.0
128	107.0	840.0
129	312.0	573.0
130	694.0	813.0
131	446.0	264.0
132	586.0	483.0
133	648.0	274.0
134	967.0	362.0
135	194.0	330.0
136	963.0	135.0
137	846.0	717.0
138	32.0	487.0
139	358.0	728.0
140	608.0	182.0
141	250.0	367.0
142	989.0	392.0
143	820.0	307.0
144	473.0	274.0
145	408.0	84.0
146	762.0	800.0
147	917.0	560.0
148	586.0	830.0
149	571.0	616.0
150	606.0	445.0
151	939.0	116.0
152	551.0	528.0
153	191.0	102.0
154	605.0	583.0
155	627.0	249.0
156	53.0	819.0
157	427.0	571.0
158	168.0	479.0
159	679.0	371.0
160	354.0	415.0
161	638.0	444.0
162	535.0	918.0
163	243.0	535.0
164	796.0	796.0
165	886.0	32.0
166	272.0	699.0
167	421.0	935.0
DEMAND_SECTION
1	0
2	6
3	9
4	7
5	5
6	9
7	5
8	9
9	7
10	10
11	8
12	6
13	5
14	9
15	8
16	9
17	10
18	5
19	7
20	8
21	5
22	9
23	9
24	7
25	5
26	7
27	8
28	5
29	10
30	9
31	9
32	9
33	9
34	7
35	9
36	5
37	10
38	6
39	9
40	9
41	5
42	6
43	10
44	6
45	6
46	8
47	6
48	6
49	10
50	9
51	7
52	8
53	6
54	6
55	6
56	8
57	5
58	10
59	6
60	9
61	9
62	9
63	7
64	9
65	6
66	7
67	5
68	9
69	6
70	5
71	6
72	9
73	6
74	8
75	8
76	5
77	7
78	7
79	7
80	10
81	5
82	10
83	8
84	7
85	9
86	10
87	8
88	9
89	8
90	7
91	10
92	7
93	9
94	6
95	5
96	8
97	8
98	6
99	7
100	10
101	6
102	9
103	5
104	9
105	9
106	5
107	10
108	5
109	6
110	10
111	7
112	10
113	8
114	8
115	5
116	8
117	7
118	6
119	9
120	9
121	7
122	7
123	10
124	9
125	8
126	9
127	8
128	7
129	8
130	7
131	7
132	5
133	7
134	5
135	5
136	9
137	7
138	5
139	5
140	9
141	10
142	10
143	5
144	7
145	5
146	6
147	5
148	7
149	6
150	7
151	7
152	9
153	6
154	10
155	7
156	10
157	7
158	7
159	7
160	5
161	6
162	6
163	9
164	9
165	6
166	10
167	9
DEPOT_SECTION
1
-1
EOF
