experiment/data/hgs-res/Vrp-Set-X-n167/Vrp-Set-X-n167-hgs/0.hgs1.log
=========== Algorithm Parameters =================
---- nbGranular        is set to 20
---- mu                is set to 25
---- lambda            is set to 40
---- nbElite           is set to 4
---- nbClose           is set to 5
---- targetFeasible    is set to 0.2
---- seed              is set to 1234
---- nbIter            is set to 20000
---- timeLimit         is set to 0
---- useSwapStar       is set to 1
==================================================
----- READING INSTANCE: baseline_results/cvrp_hgs/Vrp-Set-X-n167/Vrp-Set-X-n167-hgs/0.hgs1.vrp
----- FLEET SIZE WAS NOT SPECIFIED: DEFAULT INITIALIZATION TO 16 VEHICLES
----- INSTANCE SUCCESSFULLY LOADED WITH 166 CLIENTS AND 16 VEHICLES
----- BUILDING INITIAL POPULATION
----- STARTING GENETIC ALGORITHM
It      0      2 | T(s) 0.34 | Feas 60 21280.00 21633.35 | NO-INFEASIBLE | Div 0.47 -1.00 | Feas 1.00 1.00 | Pen 115.95 0.85
It    500    234 | T(s) 1.30 | Feas 65 20857.47 20967.14 | Inf 9 21155.69 21381.69 | Div 0.37 0.38 | Feas 0.93 1.00 | Pen 51.45 0.38
It   1000    140 | T(s) 2.27 | Feas 52 20679.49 20848.29 | Inf 49 20678.05 20824.17 | Div 0.36 0.36 | Feas 0.46 1.00 | Pen 22.83 0.17
It   1500    156 | T(s) 3.39 | Feas 28 20610.07 20812.87 | Inf 53 20620.62 20696.87 | Div 0.40 0.31 | Feas 0.25 1.00 | Pen 19.40 0.10
It   2000     15 | T(s) 4.52 | Feas 52 20609.97 20776.46 | Inf 36 20584.04 20741.16 | Div 0.36 0.36 | Feas 0.27 1.00 | Pen 19.79 0.10
It   2500    515 | T(s) 5.67 | Feas 56 20609.97 20655.56 | Inf 60 20585.62 20656.16 | Div 0.29 0.28 | Feas 0.23 1.00 | Pen 20.19 0.10
It   3000    351 | T(s) 6.82 | Feas 64 20557.38 20661.35 | Inf 42 20559.27 20706.92 | Div 0.29 0.34 | Feas 0.11 1.00 | Pen 20.59 0.10
It   3500    851 | T(s) 7.91 | Feas 47 20557.38 20642.67 | Inf 57 20554.33 20610.85 | Div 0.27 0.28 | Feas 0.33 1.00 | Pen 17.85 0.10
It   4000   1351 | T(s) 9.08 | Feas 58 20557.38 20638.94 | Inf 44 20554.33 20636.49 | Div 0.28 0.32 | Feas 0.16 1.00 | Pen 17.85 0.10
It   4500   1851 | T(s) 10.22 | Feas 49 20557.38 20634.30 | Inf 41 20560.54 20687.94 | Div 0.28 0.33 | Feas 0.15 1.00 | Pen 21.85 0.10
It   5000   2351 | T(s) 11.34 | Feas 30 20557.38 20650.38 | Inf 51 20549.17 20647.75 | Div 0.30 0.30 | Feas 0.35 1.00 | Pen 19.32 0.10
It   5500   2851 | T(s) 12.52 | Feas 50 20557.38 20612.87 | Inf 39 20551.11 20635.52 | Div 0.24 0.30 | Feas 0.17 1.00 | Pen 19.71 0.10
It   6000   3351 | T(s) 13.68 | Feas 32 20557.38 20632.88 | Inf 31 20538.00 20652.87 | Div 0.29 0.34 | Feas 0.16 1.00 | Pen 17.09 0.10
It   6500   3851 | T(s) 14.85 | Feas 48 20557.38 20612.08 | Inf 62 20557.14 20623.42 | Div 0.26 0.27 | Feas 0.13 1.00 | Pen 20.92 0.10
It   7000   4351 | T(s) 15.95 | Feas 64 20557.38 20605.02 | Inf 48 20543.23 20601.81 | Div 0.24 0.28 | Feas 0.17 1.00 | Pen 18.13 0.10
It   7500   4851 | T(s) 17.05 | Feas 60 20557.38 20597.59 | Inf 28 20545.04 20671.94 | Div 0.24 0.35 | Feas 0.22 1.00 | Pen 18.50 0.10
It   8000   5351 | T(s) 18.19 | Feas 59 20557.38 20641.90 | Inf 64 20545.04 20589.50 | Div 0.29 0.26 | Feas 0.18 1.00 | Pen 18.50 0.10
It   8500   5851 | T(s) 19.37 | Feas 42 20557.38 20672.98 | Inf 43 20546.89 20626.68 | Div 0.30 0.31 | Feas 0.22 1.00 | Pen 18.87 0.10
It   9000   6351 | T(s) 20.61 | Feas 64 20557.38 20645.31 | Inf 33 20548.78 20640.03 | Div 0.27 0.32 | Feas 0.23 1.00 | Pen 19.24 0.10
It   9500   6851 | T(s) 21.81 | Feas 48 20557.38 20709.85 | Inf 50 20535.98 20605.15 | Div 0.34 0.31 | Feas 0.32 1.00 | Pen 16.69 0.10
It  10000   7351 | T(s) 23.01 | Feas 55 20557.38 20661.84 | Inf 46 20554.67 20646.77 | Div 0.30 0.29 | Feas 0.15 1.00 | Pen 20.42 0.10
It  10500   7851 | T(s) 24.15 | Feas 42 20557.38 20684.59 | Inf 57 20541.09 20629.51 | Div 0.33 0.30 | Feas 0.18 1.00 | Pen 17.71 0.10
It  11000   8351 | T(s) 25.30 | Feas 35 20557.38 20687.49 | Inf 59 20560.36 20699.65 | Div 0.34 0.31 | Feas 0.13 1.00 | Pen 21.67 0.10
It  11500   8851 | T(s) 26.46 | Feas 32 20557.38 20672.26 | Inf 29 20544.66 20697.85 | Div 0.33 0.37 | Feas 0.18 1.00 | Pen 18.42 0.10
It  12000   9351 | T(s) 27.64 | Feas 58 20557.38 20667.02 | Inf 53 20527.44 20606.09 | Div 0.31 0.32 | Feas 0.30 1.00 | Pen 16.29 0.10
It  12500   9851 | T(s) 28.84 | Feas 65 20557.38 20627.18 | Inf 45 20534.02 20616.34 | Div 0.29 0.32 | Feas 0.30 1.00 | Pen 16.95 0.10
It  13000  10351 | T(s) 30.03 | Feas 38 20557.38 20640.24 | Inf 41 20537.41 20668.53 | Div 0.31 0.36 | Feas 0.16 1.00 | Pen 17.29 0.10
It  13500  10851 | T(s) 31.25 | Feas 31 20557.38 20706.14 | Inf 55 20525.73 20644.93 | Div 0.35 0.33 | Feas 0.37 1.00 | Pen 17.99 0.10
It  14000  11351 | T(s) 32.43 | Feas 32 20557.38 20679.43 | Inf 55 20528.61 20642.65 | Div 0.32 0.32 | Feas 0.08 1.00 | Pen 18.35 0.10
It  14500  11851 | T(s) 33.60 | Feas 27 20557.38 20728.99 | Inf 41 20534.54 20676.79 | Div 0.35 0.33 | Feas 0.09 1.00 | Pen 19.09 0.10
It  15000  12351 | T(s) 34.79 | Feas 39 20557.38 20607.55 | Inf 39 20540.71 20603.96 | Div 0.25 0.29 | Feas 0.09 1.00 | Pen 19.86 0.10
It  15500  12851 | T(s) 36.00 | Feas 63 20557.38 20616.23 | Inf 60 20547.13 20620.87 | Div 0.26 0.27 | Feas 0.24 1.00 | Pen 20.66 0.10
It  16000  13351 | T(s) 37.11 | Feas 56 20557.38 20616.59 | Inf 30 20525.15 20621.87 | Div 0.26 0.33 | Feas 0.29 1.00 | Pen 17.91 0.10
It  16500  13851 | T(s) 38.24 | Feas 52 20557.38 20607.45 | Inf 61 20528.01 20603.59 | Div 0.24 0.29 | Feas 0.25 1.00 | Pen 18.27 0.10
It  17000  14351 | T(s) 39.41 | Feas 64 20557.38 20612.96 | Inf 43 20556.48 20618.94 | Div 0.25 0.28 | Feas 0.13 1.00 | Pen 21.93 0.10
It  17500  14851 | T(s) 40.61 | Feas 59 20557.38 20612.17 | Inf 34 20560.91 20701.77 | Div 0.25 0.34 | Feas 0.15 1.00 | Pen 22.81 0.10
It  18000  15351 | T(s) 41.77 | Feas 60 20557.38 20588.68 | Inf 39 20501.21 20619.29 | Div 0.21 0.32 | Feas 0.31 1.00 | Pen 16.81 0.10
It  18500  15851 | T(s) 42.96 | Feas 31 20557.38 20615.26 | Inf 29 20519.02 20641.39 | Div 0.28 0.36 | Feas 0.22 1.00 | Pen 17.15 0.10
It  19000  16351 | T(s) 44.08 | Feas 61 20557.38 20600.23 | Inf 40 20524.56 20602.95 | Div 0.23 0.31 | Feas 0.32 1.00 | Pen 17.84 0.10
It  19500  16851 | T(s) 45.18 | Feas 37 20557.38 20605.80 | Inf 57 20530.33 20601.18 | Div 0.25 0.28 | Feas 0.37 1.00 | Pen 18.56 0.10
It  20000  17351 | T(s) 46.28 | Feas 57 20557.38 20602.65 | Inf 37 20530.33 20623.83 | Div 0.24 0.32 | Feas 0.21 1.00 | Pen 18.56 0.10
It  20500  17851 | T(s) 47.38 | Feas 31 20557.38 20623.80 | Inf 52 20517.63 20608.30 | Div 0.28 0.30 | Feas 0.34 1.00 | Pen 18.93 0.10
It  21000  18351 | T(s) 48.57 | Feas 48 20557.38 20620.45 | Inf 38 20520.28 20645.74 | Div 0.28 0.31 | Feas 0.14 1.00 | Pen 19.31 0.10
It  21500  18851 | T(s) 49.66 | Feas 60 20557.38 20602.81 | Inf 64 20520.28 20589.63 | Div 0.22 0.27 | Feas 0.19 1.00 | Pen 19.31 0.10
It  22000  19351 | T(s) 50.75 | Feas 47 20557.38 20612.04 | Inf 31 20502.30 20665.28 | Div 0.25 0.35 | Feas 0.34 1.00 | Pen 16.74 0.10
It  22500  19851 | T(s) 51.96 | Feas 48 20557.38 20604.28 | Inf 32 20528.55 20662.54 | Div 0.25 0.33 | Feas 0.19 1.00 | Pen 20.49 0.10
----- GENETIC ALGORITHM FINISHED AFTER 22651 ITERATIONS. TIME SPENT: 52.2926
----- WRITING BEST SOLUTION IN : baseline_results/cvrp_hgs/Vrp-Set-X-n167/Vrp-Set-X-n167-hgs/0.hgs1.tour
